results_rootrelaxation/bin012_090_015.srr.sol
solution status: optimal solution found
objective value:                                   33
_var182_                            0.134328358208955 	(obj:4)
_var283_                           0.0149253731343287 	(obj:4)
_var713_                            0.328358208955224 	(obj:2)
_var719_                           0.0298507462686566 	(obj:3)
_var721_                           0.0746268656716421 	(obj:4)
_var734_                            0.522388059701492 	(obj:2)
_var736_                           0.0298507462686568 	(obj:3)
_var743_                            0.104477611940298 	(obj:4)
_var745_                            0.104477611940299 	(obj:2)
_var773_                            0.552238805970149 	(obj:4)
_var780_                            0.208955223880597 	(obj:3)
_var784_                            0.104477611940299 	(obj:4)
_var787_                            0.194029850746269 	(obj:4)
_var797_                            0.328358208955224 	(obj:2)
_var799_                           0.0298507462686566 	(obj:3)
_var803_                            0.626865671641791 	(obj:4)
_var807_                            0.194029850746269 	(obj:3)
_var812_                            0.373134328358209 	(obj:3)
_var813_                            0.626865671641791 	(obj:2)
_var816_                            0.179104477611941 	(obj:3)
_var821_                            0.119402985074627 	(obj:3)
_var823_                           0.0447761194029849 	(obj:4)
_var826_                                            1 	(obj:2)
_var827_                           0.0746268656716419 	(obj:3)
_var832_                            0.477611940298508 	(obj:3)
_var838_                            0.104477611940298 	(obj:3)
_var841_                            0.194029850746269 	(obj:3)
_var842_                            0.373134328358209 	(obj:4)
_var847_                            0.268656716417911 	(obj:3)
_var851_                            0.164179104477612 	(obj:4)
_var853_                            0.119402985074627 	(obj:4)
_var854_                            0.373134328358209 	(obj:3)
_var861_                             0.17910447761194 	(obj:4)
_var862_                            0.119402985074627 	(obj:3)
_var866_                            0.283582089552239 	(obj:2)
_var867_                           0.0746268656716419 	(obj:4)
_var874_                            0.298507462686567 	(obj:3)
_var877_                           0.0597014925373137 	(obj:3)
_var879_                            0.134328358208956 	(obj:3)
_var882_                            0.492537313432835 	(obj:3)
_var884_                            0.328358208955224 	(obj:3)
_var885_                            0.044776119402985 	(obj:2)
_var891_                            0.104477611940298 	(obj:3)
_var894_                            0.164179104477612 	(obj:4)
_var895_                            0.164179104477612 	(obj:4)
_var896_                           0.0746268656716418 	(obj:4)
_var900_                             0.17910447761194 	(obj:3)
_var903_                            0.149253731343284 	(obj:3)
_var906_                           0.0597014925373135 	(obj:4)
_var909_                           0.0149253731343279 	(obj:4)
